# Objective value = 1224
y(1,1,1) 0
y(1,1,2) 0
y(1,1,3) 0
y(1,1,4) 0
y(1,1,5) 0
y(2,2,1) 0
y(2,2,2) 0
y(2,2,3) 0
y(2,2,4) 0
y(2,2,5) 0
y(3,3,1) 0
y(3,3,2) 0
y(3,3,3) 0
y(3,3,4) 0
y(3,3,5) 0
y(4,4,1) 0
y(4,4,2) 0
y(4,4,3) 0
y(4,4,4) 0
y(4,4,5) 0
y(5,5,1) 0
y(5,5,2) 0
y(5,5,3) 0
y(5,5,4) 0
y(5,5,5) 0
y(6,6,1) 0
y(6,6,2) 0
y(6,6,3) 0
y(6,6,4) 0
y(6,6,5) 0
y(7,7,1) 0
y(7,7,2) 0
y(7,7,3) 0
y(7,7,4) 0
y(7,7,5) 0
y(8,8,1) 0
y(8,8,2) 0
y(8,8,3) 0
y(8,8,4) 0
y(8,8,5) 0
y(9,9,1) 0
y(9,9,2) 0
y(9,9,3) 0
y(9,9,4) 0
y(9,9,5) 0
y(10,10,1) 0
y(10,10,2) 0
y(10,10,3) 0
y(10,10,4) 0
y(10,10,5) 0
y(11,11,1) 0
y(11,11,2) 0
y(11,11,3) 0
y(11,11,4) 0
y(11,11,5) 0
y(12,12,1) 0
y(12,12,2) 0
y(12,12,3) 0
y(12,12,4) 0
y(12,12,5) 0
y(13,13,1) 0
y(13,13,2) 0
y(13,13,3) 0
y(13,13,4) 0
y(13,13,5) 0
y(14,14,1) 0
y(14,14,2) 0
y(14,14,3) 0
y(14,14,4) 0
y(14,14,5) 0
y(15,15,1) 0
y(15,15,2) 0
y(15,15,3) 0
y(15,15,4) 0
y(15,15,5) 0
y(16,16,1) 0
y(16,16,2) 0
y(16,16,3) 0
y(16,16,4) 0
y(16,16,5) 0
y(17,17,1) 0
y(17,17,2) 0
y(17,17,3) 0
y(17,17,4) 0
y(17,17,5) 0
y(18,18,1) 0
y(18,18,2) 0
y(18,18,3) 0
y(18,18,4) 0
y(18,18,5) 0
y(19,19,1) 0
y(19,19,2) 0
y(19,19,3) 0
y(19,19,4) 0
y(19,19,5) 0
y(20,20,1) 0
y(20,20,2) 0
y(20,20,3) 0
y(20,20,4) 0
y(20,20,5) 0
Z 1224
x(1,1) 663
x(1,2) 730
x(1,3) 739
x(1,4) 906
x(1,5) 994
x(2,1) 359
x(2,2) 574
x(2,4) 739
x(2,3) 905
x(2,5) 1038
x(3,1) 935
x(3,2) 791
x(3,3) 1036
x(3,5) 1146
x(3,4) 1173
x(4,1) 864
x(4,2) 649
x(4,5) 942
x(4,3) 951
x(4,4) 1151
x(5,2) 105
x(5,3) 0
x(5,1) 142
x(5,4) 168
x(5,5) 189
x(6,2) 505
x(6,3) 406
x(6,5) 557
x(6,1) 974
x(6,4) 1218
x(7,1) 727
x(7,2) 459
x(7,3) 788
x(7,4) 1021
x(7,5) 1158
x(8,2) 975
x(8,3) 564
x(8,1) 1021
x(8,4) 1053
x(8,5) 1110
x(9,1) 587
x(9,4) 663
x(9,3) 820
x(9,2) 1148
x(9,5) 1188
x(10,2) 20
x(10,3) 345
x(10,1) 424
x(10,4) 527
x(10,5) 819
x(11,2) 278
x(11,4) 356
x(11,1) 402
x(11,5) 413
x(11,3) 1178
x(12,1) 413
x(12,3) 109
x(12,2) 431
x(12,4) 481
x(12,5) 670
x(13,1) 263
x(13,3) 490
x(13,2) 564
x(13,4) 574
x(13,5) 909
x(14,1) 488
x(14,3) 199
x(14,2) 739
x(14,4) 808
x(14,5) 951
x(15,1) 50
x(15,2) 148
x(15,5) 333
x(15,3) 690
x(15,4) 968
x(16,1) 168
x(16,2) 11
x(16,4) 278
x(16,5) 605
x(16,3) 1199
x(17,1) 13
x(17,3) 96
x(17,2) 127
x(17,4) 189
x(17,5) 278
x(18,1) 56
x(18,2) 356
x(18,5) 469
x(18,3) 642
x(18,4) 1072
x(19,2) 209
x(19,3) 294
x(19,1) 348
x(19,4) 392
x(19,5) 700
x(20,1) 0
x(20,2) 13
x(20,3) 20
x(20,4) 96
x(20,5) 774
y(1,2,1) 0
y(1,2,2) 0
y(1,2,3) 1
y(1,2,4) 0
y(1,2,5) 1
y(1,3,1) 1
y(1,3,2) 1
y(1,3,3) 1
y(1,3,4) 1
y(1,3,5) 1
y(1,4,1) 1
y(1,4,2) 0
y(1,4,3) 1
y(1,4,4) 1
y(1,4,5) 0
y(1,5,1) 0
y(1,5,2) 0
y(1,5,3) 0
y(1,5,4) 0
y(1,5,5) 0
y(1,6,1) 1
y(1,6,2) 0
y(1,6,3) 0
y(1,6,4) 1
y(1,6,5) 0
y(1,7,1) 1
y(1,7,2) 0
y(1,7,3) 1
y(1,7,4) 1
y(1,7,5) 1
y(1,8,1) 1
y(1,8,2) 1
y(1,8,3) 0
y(1,8,4) 1
y(1,8,5) 1
y(1,9,1) 0
y(1,9,2) 1
y(1,9,3) 1
y(1,9,4) 0
y(1,9,5) 1
y(1,10,1) 0
y(1,10,2) 0
y(1,10,3) 0
y(1,10,4) 0
y(1,10,5) 0
y(1,11,1) 0
y(1,11,2) 0
y(1,11,3) 1
y(1,11,4) 0
y(1,11,5) 0
y(1,12,1) 0
y(1,12,2) 0
y(1,12,3) 0
y(1,12,4) 0
y(1,12,5) 0
y(1,13,1) 0
y(1,13,2) 0
y(1,13,3) 0
y(1,13,4) 0
y(1,13,5) 0
y(1,14,1) 0
y(1,14,2) 1
y(1,14,3) 0
y(1,14,4) 0
y(1,14,5) 0
y(1,15,1) 0
y(1,15,2) 0
y(1,15,3) 0
y(1,15,4) 1
y(1,15,5) 0
y(1,16,1) 0
y(1,16,2) 0
y(1,16,3) 1
y(1,16,4) 0
y(1,16,5) 0
y(1,17,1) 0
y(1,17,2) 0
y(1,17,3) 0
y(1,17,4) 0
y(1,17,5) 0
y(1,18,1) 0
y(1,18,2) 0
y(1,18,3) 0
y(1,18,4) 1
y(1,18,5) 0
y(1,19,1) 0
y(1,19,2) 0
y(1,19,3) 0
y(1,19,4) 0
y(1,19,5) 0
y(1,20,1) 0
y(1,20,2) 0
y(1,20,3) 0
y(1,20,4) 0
y(1,20,5) 0
y(2,1,1) 1
y(2,1,2) 1
y(2,1,3) 0
y(2,1,4) 1
y(2,1,5) 0
y(2,3,1) 1
y(2,3,2) 1
y(2,3,3) 1
y(2,3,4) 1
y(2,3,5) 1
y(2,4,1) 1
y(2,4,2) 1
y(2,4,3) 1
y(2,4,4) 1
y(2,4,5) 0
y(2,5,1) 0
y(2,5,2) 0
y(2,5,3) 0
y(2,5,4) 0
y(2,5,5) 0
y(2,6,1) 1
y(2,6,2) 0
y(2,6,3) 0
y(2,6,4) 1
y(2,6,5) 0
y(2,7,1) 1
y(2,7,2) 0
y(2,7,3) 0
y(2,7,4) 1
y(2,7,5) 1
y(2,8,1) 1
y(2,8,2) 1
y(2,8,3) 0
y(2,8,4) 1
y(2,8,5) 1
y(2,9,1) 1
y(2,9,2) 1
y(2,9,3) 0
y(2,9,4) 0
y(2,9,5) 1
y(2,10,1) 1
y(2,10,2) 0
y(2,10,3) 0
y(2,10,4) 0
y(2,10,5) 0
y(2,11,1) 1
y(2,11,2) 0
y(2,11,3) 1
y(2,11,4) 0
y(2,11,5) 0
y(2,12,1) 1
y(2,12,2) 0
y(2,12,3) 0
y(2,12,4) 0
y(2,12,5) 0
y(2,13,1) 0
y(2,13,2) 0
y(2,13,3) 0
y(2,13,4) 0
y(2,13,5) 0
y(2,14,1) 1
y(2,14,2) 1
y(2,14,3) 0
y(2,14,4) 1
y(2,14,5) 0
y(2,15,1) 0
y(2,15,2) 0
y(2,15,3) 0
y(2,15,4) 1
y(2,15,5) 0
y(2,16,1) 0
y(2,16,2) 0
y(2,16,3) 1
y(2,16,4) 0
y(2,16,5) 0
y(2,17,1) 0
y(2,17,2) 0
y(2,17,3) 0
y(2,17,4) 0
y(2,17,5) 0
y(2,18,1) 0
y(2,18,2) 0
y(2,18,3) 0
y(2,18,4) 1
y(2,18,5) 0
y(2,19,1) 0
y(2,19,2) 0
y(2,19,3) 0
y(2,19,4) 0
y(2,19,5) 0
y(2,20,1) 0
y(2,20,2) 0
y(2,20,3) 0
y(2,20,4) 0
y(2,20,5) 0
y(3,1,1) 0
y(3,1,2) 0
y(3,1,3) 0
y(3,1,4) 0
y(3,1,5) 0
y(3,2,1) 0
y(3,2,2) 0
y(3,2,3) 0
y(3,2,4) 0
y(3,2,5) 0
y(3,4,1) 0
y(3,4,2) 0
y(3,4,3) 0
y(3,4,4) 0
y(3,4,5) 0
y(3,5,1) 0
y(3,5,2) 0
y(3,5,3) 0
y(3,5,4) 0
y(3,5,5) 0
y(3,6,1) 1
y(3,6,2) 0
y(3,6,3) 0
y(3,6,4) 1
y(3,6,5) 0
y(3,7,1) 0
y(3,7,2) 0
y(3,7,3) 0
y(3,7,4) 0
y(3,7,5) 1
y(3,8,1) 1
y(3,8,2) 1
y(3,8,3) 0
y(3,8,4) 0
y(3,8,5) 0
y(3,9,1) 0
y(3,9,2) 1
y(3,9,3) 0
y(3,9,4) 0
y(3,9,5) 1
y(3,10,1) 0
y(3,10,2) 0
y(3,10,3) 0
y(3,10,4) 0
y(3,10,5) 0
y(3,11,1) 0
y(3,11,2) 0
y(3,11,3) 1
y(3,11,4) 0
y(3,11,5) 0
y(3,12,1) 0
y(3,12,2) 0
y(3,12,3) 0
y(3,12,4) 0
y(3,12,5) 0
y(3,13,1) 0
y(3,13,2) 0
y(3,13,3) 0
y(3,13,4) 0
y(3,13,5) 0
y(3,14,1) 0
y(3,14,2) 0
y(3,14,3) 0
y(3,14,4) 0
y(3,14,5) 0
y(3,15,1) 0
y(3,15,2) 0
y(3,15,3) 0
y(3,15,4) 0
y(3,15,5) 0
y(3,16,1) 0
y(3,16,2) 0
y(3,16,3) 1
y(3,16,4) 0
y(3,16,5) 0
y(3,17,1) 0
y(3,17,2) 0
y(3,17,3) 0
y(3,17,4) 0
y(3,17,5) 0
y(3,18,1) 0
y(3,18,2) 0
y(3,18,3) 0
y(3,18,4) 0
y(3,18,5) 0
y(3,19,1) 0
y(3,19,2) 0
y(3,19,3) 0
y(3,19,4) 0
y(3,19,5) 0
y(3,20,1) 0
y(3,20,2) 0
y(3,20,3) 0
y(3,20,4) 0
y(3,20,5) 0
y(4,1,1) 0
y(4,1,2) 1
y(4,1,3) 0
y(4,1,4) 0
y(4,1,5) 1
y(4,2,1) 0
y(4,2,2) 0
y(4,2,3) 0
y(4,2,4) 0
y(4,2,5) 1
y(4,3,1) 1
y(4,3,2) 1
y(4,3,3) 1
y(4,3,4) 1
y(4,3,5) 1
y(4,5,1) 0
y(4,5,2) 0
y(4,5,3) 0
y(4,5,4) 0
y(4,5,5) 0
y(4,6,1) 1
y(4,6,2) 0
y(4,6,3) 0
y(4,6,4) 1
y(4,6,5) 0
y(4,7,1) 0
y(4,7,2) 0
y(4,7,3) 0
y(4,7,4) 0
y(4,7,5) 1
y(4,8,1) 1
y(4,8,2) 1
y(4,8,3) 0
y(4,8,4) 0
y(4,8,5) 1
y(4,9,1) 0
y(4,9,2) 1
y(4,9,3) 0
y(4,9,4) 0
y(4,9,5) 1
y(4,10,1) 0
y(4,10,2) 0
y(4,10,3) 0
y(4,10,4) 0
y(4,10,5) 0
y(4,11,1) 0
y(4,11,2) 0
y(4,11,3) 1
y(4,11,4) 0
y(4,11,5) 0
y(4,12,1) 0
y(4,12,2) 0
y(4,12,3) 0
y(4,12,4) 0
y(4,12,5) 0
y(4,13,1) 0
y(4,13,2) 0
y(4,13,3) 0
y(4,13,4) 0
y(4,13,5) 0
y(4,14,1) 0
y(4,14,2) 1
y(4,14,3) 0
y(4,14,4) 0
y(4,14,5) 1
y(4,15,1) 0
y(4,15,2) 0
y(4,15,3) 0
y(4,15,4) 0
y(4,15,5) 0
y(4,16,1) 0
y(4,16,2) 0
y(4,16,3) 1
y(4,16,4) 0
y(4,16,5) 0
y(4,17,1) 0
y(4,17,2) 0
y(4,17,3) 0
y(4,17,4) 0
y(4,17,5) 0
y(4,18,1) 0
y(4,18,2) 0
y(4,18,3) 0
y(4,18,4) 0
y(4,18,5) 0
y(4,19,1) 0
y(4,19,2) 0
y(4,19,3) 0
y(4,19,4) 0
y(4,19,5) 0
y(4,20,1) 0
y(4,20,2) 0
y(4,20,3) 0
y(4,20,4) 0
y(4,20,5) 0
y(5,1,1) 1
y(5,1,2) 1
y(5,1,3) 1
y(5,1,4) 1
y(5,1,5) 1
y(5,2,1) 1
y(5,2,2) 1
y(5,2,3) 1
y(5,2,4) 1
y(5,2,5) 1
y(5,3,1) 1
y(5,3,2) 1
y(5,3,3) 1
y(5,3,4) 1
y(5,3,5) 1
y(5,4,1) 1
y(5,4,2) 1
y(5,4,3) 1
y(5,4,4) 1
y(5,4,5) 1
y(5,6,1) 1
y(5,6,2) 1
y(5,6,3) 1
y(5,6,4) 1
y(5,6,5) 1
y(5,7,1) 1
y(5,7,2) 1
y(5,7,3) 1
y(5,7,4) 1
y(5,7,5) 1
y(5,8,1) 1
y(5,8,2) 1
y(5,8,3) 1
y(5,8,4) 1
y(5,8,5) 1
y(5,9,1) 1
y(5,9,2) 1
y(5,9,3) 1
y(5,9,4) 1
y(5,9,5) 1
y(5,10,1) 1
y(5,10,2) 0
y(5,10,3) 1
y(5,10,4) 1
y(5,10,5) 1
y(5,11,1) 1
y(5,11,2) 1
y(5,11,3) 1
y(5,11,4) 1
y(5,11,5) 1
y(5,12,1) 1
y(5,12,2) 1
y(5,12,3) 1
y(5,12,4) 1
y(5,12,5) 1
y(5,13,1) 1
y(5,13,2) 1
y(5,13,3) 1
y(5,13,4) 1
y(5,13,5) 1
y(5,14,1) 1
y(5,14,2) 1
y(5,14,3) 1
y(5,14,4) 1
y(5,14,5) 1
y(5,15,1) 0
y(5,15,2) 1
y(5,15,3) 1
y(5,15,4) 1
y(5,15,5) 1
y(5,16,1) 1
y(5,16,2) 0
y(5,16,3) 1
y(5,16,4) 1
y(5,16,5) 1
y(5,17,1) 0
y(5,17,2) 1
y(5,17,3) 1
y(5,17,4) 1
y(5,17,5) 1
y(5,18,1) 0
y(5,18,2) 1
y(5,18,3) 1
y(5,18,4) 1
y(5,18,5) 1
y(5,19,1) 1
y(5,19,2) 1
y(5,19,3) 1
y(5,19,4) 1
y(5,19,5) 1
y(5,20,1) 0
y(5,20,2) 0
y(5,20,3) 1
y(5,20,4) 0
y(5,20,5) 1
y(6,1,1) 0
y(6,1,2) 1
y(6,1,3) 1
y(6,1,4) 0
y(6,1,5) 1
y(6,2,1) 0
y(6,2,2) 1
y(6,2,3) 1
y(6,2,4) 0
y(6,2,5) 1
y(6,3,1) 0
y(6,3,2) 1
y(6,3,3) 1
y(6,3,4) 0
y(6,3,5) 1
y(6,4,1) 0
y(6,4,2) 1
y(6,4,3) 1
y(6,4,4) 0
y(6,4,5) 1
y(6,5,1) 0
y(6,5,2) 0
y(6,5,3) 0
y(6,5,4) 0
y(6,5,5) 0
y(6,7,1) 0
y(6,7,2) 0
y(6,7,3) 1
y(6,7,4) 0
y(6,7,5) 1
y(6,8,1) 1
y(6,8,2) 1
y(6,8,3) 1
y(6,8,4) 0
y(6,8,5) 1
y(6,9,1) 0
y(6,9,2) 1
y(6,9,3) 1
y(6,9,4) 0
y(6,9,5) 1
y(6,10,1) 0
y(6,10,2) 0
y(6,10,3) 0
y(6,10,4) 0
y(6,10,5) 1
y(6,11,1) 0
y(6,11,2) 0
y(6,11,3) 1
y(6,11,4) 0
y(6,11,5) 0
y(6,12,1) 0
y(6,12,2) 0
y(6,12,3) 0
y(6,12,4) 0
y(6,12,5) 1
y(6,13,1) 0
y(6,13,2) 1
y(6,13,3) 1
y(6,13,4) 0
y(6,13,5) 1
y(6,14,1) 0
y(6,14,2) 1
y(6,14,3) 0
y(6,14,4) 0
y(6,14,5) 1
y(6,15,1) 0
y(6,15,2) 0
y(6,15,3) 1
y(6,15,4) 0
y(6,15,5) 0
y(6,16,1) 0
y(6,16,2) 0
y(6,16,3) 1
y(6,16,4) 0
y(6,16,5) 1
y(6,17,1) 0
y(6,17,2) 0
y(6,17,3) 0
y(6,17,4) 0
y(6,17,5) 0
y(6,18,1) 0
y(6,18,2) 0
y(6,18,3) 1
y(6,18,4) 0
y(6,18,5) 0
y(6,19,1) 0
y(6,19,2) 0
y(6,19,3) 0
y(6,19,4) 0
y(6,19,5) 1
y(6,20,1) 0
y(6,20,2) 0
y(6,20,3) 0
y(6,20,4) 0
y(6,20,5) 1
y(7,1,1) 0
y(7,1,2) 1
y(7,1,3) 0
y(7,1,4) 0
y(7,1,5) 0
y(7,2,1) 0
y(7,2,2) 1
y(7,2,3) 1
y(7,2,4) 0
y(7,2,5) 0
y(7,3,1) 1
y(7,3,2) 1
y(7,3,3) 1
y(7,3,4) 1
y(7,3,5) 0
y(7,4,1) 1
y(7,4,2) 1
y(7,4,3) 1
y(7,4,4) 1
y(7,4,5) 0
y(7,5,1) 0
y(7,5,2) 0
y(7,5,3) 0
y(7,5,4) 0
y(7,5,5) 0
y(7,6,1) 1
y(7,6,2) 1
y(7,6,3) 0
y(7,6,4) 1
y(7,6,5) 0
y(7,8,1) 1
y(7,8,2) 1
y(7,8,3) 0
y(7,8,4) 1
y(7,8,5) 0
y(7,9,1) 0
y(7,9,2) 1
y(7,9,3) 1
y(7,9,4) 0
y(7,9,5) 1
y(7,10,1) 0
y(7,10,2) 0
y(7,10,3) 0
y(7,10,4) 0
y(7,10,5) 0
y(7,11,1) 0
y(7,11,2) 0
y(7,11,3) 1
y(7,11,4) 0
y(7,11,5) 0
y(7,12,1) 0
y(7,12,2) 0
y(7,12,3) 0
y(7,12,4) 0
y(7,12,5) 0
y(7,13,1) 0
y(7,13,2) 1
y(7,13,3) 0
y(7,13,4) 0
y(7,13,5) 0
y(7,14,1) 0
y(7,14,2) 1
y(7,14,3) 0
y(7,14,4) 0
y(7,14,5) 0
y(7,15,1) 0
y(7,15,2) 0
y(7,15,3) 0
y(7,15,4) 0
y(7,15,5) 0
y(7,16,1) 0
y(7,16,2) 0
y(7,16,3) 1
y(7,16,4) 0
y(7,16,5) 0
y(7,17,1) 0
y(7,17,2) 0
y(7,17,3) 0
y(7,17,4) 0
y(7,17,5) 0
y(7,18,1) 0
y(7,18,2) 0
y(7,18,3) 0
y(7,18,4) 1
y(7,18,5) 0
y(7,19,1) 0
y(7,19,2) 0
y(7,19,3) 0
y(7,19,4) 0
y(7,19,5) 0
y(7,20,1) 0
y(7,20,2) 0
y(7,20,3) 0
y(7,20,4) 0
y(7,20,5) 0
y(8,1,1) 0
y(8,1,2) 0
y(8,1,3) 1
y(8,1,4) 0
y(8,1,5) 0
y(8,2,1) 0
y(8,2,2) 0
y(8,2,3) 1
y(8,2,4) 0
y(8,2,5) 0
y(8,3,1) 0
y(8,3,2) 0
y(8,3,3) 1
y(8,3,4) 1
y(8,3,5) 1
y(8,4,1) 0
y(8,4,2) 0
y(8,4,3) 1
y(8,4,4) 1
y(8,4,5) 0
y(8,5,1) 0
y(8,5,2) 0
y(8,5,3) 0
y(8,5,4) 0
y(8,5,5) 0
y(8,6,1) 0
y(8,6,2) 0
y(8,6,3) 0
y(8,6,4) 1
y(8,6,5) 0
y(8,7,1) 0
y(8,7,2) 0
y(8,7,3) 1
y(8,7,4) 0
y(8,7,5) 1
y(8,9,1) 0
y(8,9,2) 1
y(8,9,3) 1
y(8,9,4) 0
y(8,9,5) 1
y(8,10,1) 0
y(8,10,2) 0
y(8,10,3) 0
y(8,10,4) 0
y(8,10,5) 0
y(8,11,1) 0
y(8,11,2) 0
y(8,11,3) 1
y(8,11,4) 0
y(8,11,5) 0
y(8,12,1) 0
y(8,12,2) 0
y(8,12,3) 0
y(8,12,4) 0
y(8,12,5) 0
y(8,13,1) 0
y(8,13,2) 0
y(8,13,3) 0
y(8,13,4) 0
y(8,13,5) 0
y(8,14,1) 0
y(8,14,2) 0
y(8,14,3) 0
y(8,14,4) 0
y(8,14,5) 0
y(8,15,1) 0
y(8,15,2) 0
y(8,15,3) 1
y(8,15,4) 0
y(8,15,5) 0
y(8,16,1) 0
y(8,16,2) 0
y(8,16,3) 1
y(8,16,4) 0
y(8,16,5) 0
y(8,17,1) 0
y(8,17,2) 0
y(8,17,3) 0
y(8,17,4) 0
y(8,17,5) 0
y(8,18,1) 0
y(8,18,2) 0
y(8,18,3) 1
y(8,18,4) 1
y(8,18,5) 0
y(8,19,1) 0
y(8,19,2) 0
y(8,19,3) 0
y(8,19,4) 0
y(8,19,5) 0
y(8,20,1) 0
y(8,20,2) 0
y(8,20,3) 0
y(8,20,4) 0
y(8,20,5) 0
y(9,1,1) 1
y(9,1,2) 0
y(9,1,3) 0
y(9,1,4) 1
y(9,1,5) 0
y(9,2,1) 0
y(9,2,2) 0
y(9,2,3) 1
y(9,2,4) 1
y(9,2,5) 0
y(9,3,1) 1
y(9,3,2) 0
y(9,3,3) 1
y(9,3,4) 1
y(9,3,5) 0
y(9,4,1) 1
y(9,4,2) 0
y(9,4,3) 1
y(9,4,4) 1
y(9,4,5) 0
y(9,5,1) 0
y(9,5,2) 0
y(9,5,3) 0
y(9,5,4) 0
y(9,5,5) 0
y(9,6,1) 1
y(9,6,2) 0
y(9,6,3) 0
y(9,6,4) 1
y(9,6,5) 0
y(9,7,1) 1
y(9,7,2) 0
y(9,7,3) 0
y(9,7,4) 1
y(9,7,5) 0
y(9,8,1) 1
y(9,8,2) 0
y(9,8,3) 0
y(9,8,4) 1
y(9,8,5) 0
y(9,10,1) 0
y(9,10,2) 0
y(9,10,3) 0
y(9,10,4) 0
y(9,10,5) 0
y(9,11,1) 0
y(9,11,2) 0
y(9,11,3) 1
y(9,11,4) 0
y(9,11,5) 0
y(9,12,1) 0
y(9,12,2) 0
y(9,12,3) 0
y(9,12,4) 0
y(9,12,5) 0
y(9,13,1) 0
y(9,13,2) 0
y(9,13,3) 0
y(9,13,4) 0
y(9,13,5) 0
y(9,14,1) 0
y(9,14,2) 0
y(9,14,3) 0
y(9,14,4) 1
y(9,14,5) 0
y(9,15,1) 0
y(9,15,2) 0
y(9,15,3) 0
y(9,15,4) 1
y(9,15,5) 0
y(9,16,1) 0
y(9,16,2) 0
y(9,16,3) 1
y(9,16,4) 0
y(9,16,5) 0
y(9,17,1) 0
y(9,17,2) 0
y(9,17,3) 0
y(9,17,4) 0
y(9,17,5) 0
y(9,18,1) 0
y(9,18,2) 0
y(9,18,3) 0
y(9,18,4) 1
y(9,18,5) 0
y(9,19,1) 0
y(9,19,2) 0
y(9,19,3) 0
y(9,19,4) 0
y(9,19,5) 0
y(9,20,1) 0
y(9,20,2) 0
y(9,20,3) 0
y(9,20,4) 0
y(9,20,5) 0
y(10,1,1) 1
y(10,1,2) 1
y(10,1,3) 1
y(10,1,4) 1
y(10,1,5) 1
y(10,2,1) 0
y(10,2,2) 1
y(10,2,3) 1
y(10,2,4) 1
y(10,2,5) 1
y(10,3,1) 1
y(10,3,2) 1
y(10,3,3) 1
y(10,3,4) 1
y(10,3,5) 1
y(10,4,1) 1
y(10,4,2) 1
y(10,4,3) 1
y(10,4,4) 1
y(10,4,5) 1
y(10,5,1) 0
y(10,5,2) 1
y(10,5,3) 0
y(10,5,4) 0
y(10,5,5) 0
y(10,6,1) 1
y(10,6,2) 1
y(10,6,3) 1
y(10,6,4) 1
y(10,6,5) 0
y(10,7,1) 1
y(10,7,2) 1
y(10,7,3) 1
y(10,7,4) 1
y(10,7,5) 1
y(10,8,1) 1
y(10,8,2) 1
y(10,8,3) 1
y(10,8,4) 1
y(10,8,5) 1
y(10,9,1) 1
y(10,9,2) 1
y(10,9,3) 1
y(10,9,4) 1
y(10,9,5) 1
y(10,11,1) 0
y(10,11,2) 1
y(10,11,3) 1
y(10,11,4) 0
y(10,11,5) 0
y(10,12,1) 0
y(10,12,2) 1
y(10,12,3) 0
y(10,12,4) 0
y(10,12,5) 0
y(10,13,1) 0
y(10,13,2) 1
y(10,13,3) 1
y(10,13,4) 1
y(10,13,5) 1
y(10,14,1) 1
y(10,14,2) 1
y(10,14,3) 0
y(10,14,4) 1
y(10,14,5) 1
y(10,15,1) 0
y(10,15,2) 1
y(10,15,3) 1
y(10,15,4) 1
y(10,15,5) 0
y(10,16,1) 0
y(10,16,2) 0
y(10,16,3) 1
y(10,16,4) 0
y(10,16,5) 0
y(10,17,1) 0
y(10,17,2) 1
y(10,17,3) 0
y(10,17,4) 0
y(10,17,5) 0
y(10,18,1) 0
y(10,18,2) 1
y(10,18,3) 1
y(10,18,4) 1
y(10,18,5) 0
y(10,19,1) 0
y(10,19,2) 1
y(10,19,3) 0
y(10,19,4) 0
y(10,19,5) 0
y(10,20,1) 0
y(10,20,2) 0
y(10,20,3) 0
y(10,20,4) 0
y(10,20,5) 0
y(11,1,1) 1
y(11,1,2) 1
y(11,1,3) 0
y(11,1,4) 1
y(11,1,5) 1
y(11,2,1) 0
y(11,2,2) 1
y(11,2,3) 0
y(11,2,4) 1
y(11,2,5) 1
y(11,3,1) 1
y(11,3,2) 1
y(11,3,3) 0
y(11,3,4) 1
y(11,3,5) 1
y(11,4,1) 1
y(11,4,2) 1
y(11,4,3) 0
y(11,4,4) 1
y(11,4,5) 1
y(11,5,1) 0
y(11,5,2) 0
y(11,5,3) 0
y(11,5,4) 0
y(11,5,5) 0
y(11,6,1) 1
y(11,6,2) 1
y(11,6,3) 0
y(11,6,4) 1
y(11,6,5) 1
y(11,7,1) 1
y(11,7,2) 1
y(11,7,3) 0
y(11,7,4) 1
y(11,7,5) 1
y(11,8,1) 1
y(11,8,2) 1
y(11,8,3) 0
y(11,8,4) 1
y(11,8,5) 1
y(11,9,1) 1
y(11,9,2) 1
y(11,9,3) 0
y(11,9,4) 1
y(11,9,5) 1
y(11,10,1) 1
y(11,10,2) 0
y(11,10,3) 0
y(11,10,4) 1
y(11,10,5) 1
y(11,12,1) 1
y(11,12,2) 1
y(11,12,3) 0
y(11,12,4) 1
y(11,12,5) 1
y(11,13,1) 0
y(11,13,2) 1
y(11,13,3) 0
y(11,13,4) 1
y(11,13,5) 1
y(11,14,1) 1
y(11,14,2) 1
y(11,14,3) 0
y(11,14,4) 1
y(11,14,5) 1
y(11,15,1) 0
y(11,15,2) 0
y(11,15,3) 0
y(11,15,4) 1
y(11,15,5) 0
y(11,16,1) 0
y(11,16,2) 0
y(11,16,3) 1
y(11,16,4) 0
y(11,16,5) 1
y(11,17,1) 0
y(11,17,2) 0
y(11,17,3) 0
y(11,17,4) 0
y(11,17,5) 0
y(11,18,1) 0
y(11,18,2) 1
y(11,18,3) 0
y(11,18,4) 1
y(11,18,5) 1
y(11,19,1) 0
y(11,19,2) 0
y(11,19,3) 0
y(11,19,4) 1
y(11,19,5) 1
y(11,20,1) 0
y(11,20,2) 0
y(11,20,3) 0
y(11,20,4) 0
y(11,20,5) 1
y(12,1,1) 1
y(12,1,2) 1
y(12,1,3) 1
y(12,1,4) 1
y(12,1,5) 1
y(12,2,1) 0
y(12,2,2) 1
y(12,2,3) 1
y(12,2,4) 1
y(12,2,5) 1
y(12,3,1) 1
y(12,3,2) 1
y(12,3,3) 1
y(12,3,4) 1
y(12,3,5) 1
y(12,4,1) 1
y(12,4,2) 1
y(12,4,3) 1
y(12,4,4) 1
y(12,4,5) 1
y(12,5,1) 0
y(12,5,2) 0
y(12,5,3) 0
y(12,5,4) 0
y(12,5,5) 0
y(12,6,1) 1
y(12,6,2) 1
y(12,6,3) 1
y(12,6,4) 1
y(12,6,5) 0
y(12,7,1) 1
y(12,7,2) 1
y(12,7,3) 1
y(12,7,4) 1
y(12,7,5) 1
y(12,8,1) 1
y(12,8,2) 1
y(12,8,3) 1
y(12,8,4) 1
y(12,8,5) 1
y(12,9,1) 1
y(12,9,2) 1
y(12,9,3) 1
y(12,9,4) 1
y(12,9,5) 1
y(12,10,1) 1
y(12,10,2) 0
y(12,10,3) 1
y(12,10,4) 1
y(12,10,5) 1
y(12,11,1) 0
y(12,11,2) 0
y(12,11,3) 1
y(12,11,4) 0
y(12,11,5) 0
y(12,13,1) 0
y(12,13,2) 1
y(12,13,3) 1
y(12,13,4) 1
y(12,13,5) 1
y(12,14,1) 1
y(12,14,2) 1
y(12,14,3) 1
y(12,14,4) 1
y(12,14,5) 1
y(12,15,1) 0
y(12,15,2) 0
y(12,15,3) 1
y(12,15,4) 1
y(12,15,5) 0
y(12,16,1) 0
y(12,16,2) 0
y(12,16,3) 1
y(12,16,4) 0
y(12,16,5) 0
y(12,17,1) 0
y(12,17,2) 0
y(12,17,3) 0
y(12,17,4) 0
y(12,17,5) 0
y(12,18,1) 0
y(12,18,2) 0
y(12,18,3) 1
y(12,18,4) 1
y(12,18,5) 0
y(12,19,1) 0
y(12,19,2) 0
y(12,19,3) 1
y(12,19,4) 0
y(12,19,5) 1
y(12,20,1) 0
y(12,20,2) 0
y(12,20,3) 0
y(12,20,4) 0
y(12,20,5) 1
y(13,1,1) 1
y(13,1,2) 1
y(13,1,3) 1
y(13,1,4) 1
y(13,1,5) 1
y(13,2,1) 1
y(13,2,2) 1
y(13,2,3) 1
y(13,2,4) 1
y(13,2,5) 1
y(13,3,1) 1
y(13,3,2) 1
y(13,3,3) 1
y(13,3,4) 1
y(13,3,5) 1
y(13,4,1) 1
y(13,4,2) 1
y(13,4,3) 1
y(13,4,4) 1
y(13,4,5) 1
y(13,5,1) 0
y(13,5,2) 0
y(13,5,3) 0
y(13,5,4) 0
y(13,5,5) 0
y(13,6,1) 1
y(13,6,2) 0
y(13,6,3) 0
y(13,6,4) 1
y(13,6,5) 0
y(13,7,1) 1
y(13,7,2) 0
y(13,7,3) 1
y(13,7,4) 1
y(13,7,5) 1
y(13,8,1) 1
y(13,8,2) 1
y(13,8,3) 1
y(13,8,4) 1
y(13,8,5) 1
y(13,9,1) 1
y(13,9,2) 1
y(13,9,3) 1
y(13,9,4) 1
y(13,9,5) 1
y(13,10,1) 1
y(13,10,2) 0
y(13,10,3) 0
y(13,10,4) 0
y(13,10,5) 0
y(13,11,1) 1
y(13,11,2) 0
y(13,11,3) 1
y(13,11,4) 0
y(13,11,5) 0
y(13,12,1) 1
y(13,12,2) 0
y(13,12,3) 0
y(13,12,4) 0
y(13,12,5) 0
y(13,14,1) 1
y(13,14,2) 1
y(13,14,3) 0
y(13,14,4) 1
y(13,14,5) 1
y(13,15,1) 0
y(13,15,2) 0
y(13,15,3) 1
y(13,15,4) 1
y(13,15,5) 0
y(13,16,1) 0
y(13,16,2) 0
y(13,16,3) 1
y(13,16,4) 0
y(13,16,5) 0
y(13,17,1) 0
y(13,17,2) 0
y(13,17,3) 0
y(13,17,4) 0
y(13,17,5) 0
y(13,18,1) 0
y(13,18,2) 0
y(13,18,3) 1
y(13,18,4) 1
y(13,18,5) 0
y(13,19,1) 1
y(13,19,2) 0
y(13,19,3) 0
y(13,19,4) 0
y(13,19,5) 0
y(13,20,1) 0
y(13,20,2) 0
y(13,20,3) 0
y(13,20,4) 0
y(13,20,5) 0
y(14,1,1) 1
y(14,1,2) 0
y(14,1,3) 1
y(14,1,4) 1
y(14,1,5) 1
y(14,2,1) 0
y(14,2,2) 0
y(14,2,3) 1
y(14,2,4) 0
y(14,2,5) 1
y(14,3,1) 1
y(14,3,2) 1
y(14,3,3) 1
y(14,3,4) 1
y(14,3,5) 1
y(14,4,1) 1
y(14,4,2) 0
y(14,4,3) 1
y(14,4,4) 1
y(14,4,5) 0
y(14,5,1) 0
y(14,5,2) 0
y(14,5,3) 0
y(14,5,4) 0
y(14,5,5) 0
y(14,6,1) 1
y(14,6,2) 0
y(14,6,3) 1
y(14,6,4) 1
y(14,6,5) 0
y(14,7,1) 1
y(14,7,2) 0
y(14,7,3) 1
y(14,7,4) 1
y(14,7,5) 1
y(14,8,1) 1
y(14,8,2) 1
y(14,8,3) 1
y(14,8,4) 1
y(14,8,5) 1
y(14,9,1) 1
y(14,9,2) 1
y(14,9,3) 1
y(14,9,4) 0
y(14,9,5) 1
y(14,10,1) 0
y(14,10,2) 0
y(14,10,3) 1
y(14,10,4) 0
y(14,10,5) 0
y(14,11,1) 0
y(14,11,2) 0
y(14,11,3) 1
y(14,11,4) 0
y(14,11,5) 0
y(14,12,1) 0
y(14,12,2) 0
y(14,12,3) 0
y(14,12,4) 0
y(14,12,5) 0
y(14,13,1) 0
y(14,13,2) 0
y(14,13,3) 1
y(14,13,4) 0
y(14,13,5) 0
y(14,15,1) 0
y(14,15,2) 0
y(14,15,3) 1
y(14,15,4) 1
y(14,15,5) 0
y(14,16,1) 0
y(14,16,2) 0
y(14,16,3) 1
y(14,16,4) 0
y(14,16,5) 0
y(14,17,1) 0
y(14,17,2) 0
y(14,17,3) 0
y(14,17,4) 0
y(14,17,5) 0
y(14,18,1) 0
y(14,18,2) 0
y(14,18,3) 1
y(14,18,4) 1
y(14,18,5) 0
y(14,19,1) 0
y(14,19,2) 0
y(14,19,3) 1
y(14,19,4) 0
y(14,19,5) 0
y(14,20,1) 0
y(14,20,2) 0
y(14,20,3) 0
y(14,20,4) 0
y(14,20,5) 0
y(15,1,1) 1
y(15,1,2) 1
y(15,1,3) 1
y(15,1,4) 0
y(15,1,5) 1
y(15,2,1) 1
y(15,2,2) 1
y(15,2,3) 1
y(15,2,4) 0
y(15,2,5) 1
y(15,3,1) 1
y(15,3,2) 1
y(15,3,3) 1
y(15,3,4) 1
y(15,3,5) 1
y(15,4,1) 1
y(15,4,2) 1
y(15,4,3) 1
y(15,4,4) 1
y(15,4,5) 1
y(15,5,1) 1
y(15,5,2) 0
y(15,5,3) 0
y(15,5,4) 0
y(15,5,5) 0
y(15,6,1) 1
y(15,6,2) 1
y(15,6,3) 0
y(15,6,4) 1
y(15,6,5) 1
y(15,7,1) 1
y(15,7,2) 1
y(15,7,3) 1
y(15,7,4) 1
y(15,7,5) 1
y(15,8,1) 1
y(15,8,2) 1
y(15,8,3) 0
y(15,8,4) 1
y(15,8,5) 1
y(15,9,1) 1
y(15,9,2) 1
y(15,9,3) 1
y(15,9,4) 0
y(15,9,5) 1
y(15,10,1) 1
y(15,10,2) 0
y(15,10,3) 0
y(15,10,4) 0
y(15,10,5) 1
y(15,11,1) 1
y(15,11,2) 1
y(15,11,3) 1
y(15,11,4) 0
y(15,11,5) 1
y(15,12,1) 1
y(15,12,2) 1
y(15,12,3) 0
y(15,12,4) 0
y(15,12,5) 1
y(15,13,1) 1
y(15,13,2) 1
y(15,13,3) 0
y(15,13,4) 0
y(15,13,5) 1
y(15,14,1) 1
y(15,14,2) 1
y(15,14,3) 0
y(15,14,4) 0
y(15,14,5) 1
y(15,16,1) 1
y(15,16,2) 0
y(15,16,3) 1
y(15,16,4) 0
y(15,16,5) 1
y(15,17,1) 0
y(15,17,2) 0
y(15,17,3) 0
y(15,17,4) 0
y(15,17,5) 0
y(15,18,1) 1
y(15,18,2) 1
y(15,18,3) 0
y(15,18,4) 1
y(15,18,5) 1
y(15,19,1) 1
y(15,19,2) 1
y(15,19,3) 0
y(15,19,4) 0
y(15,19,5) 1
y(15,20,1) 0
y(15,20,2) 0
y(15,20,3) 0
y(15,20,4) 0
y(15,20,5) 1
y(16,1,1) 1
y(16,1,2) 1
y(16,1,3) 0
y(16,1,4) 1
y(16,1,5) 1
y(16,2,1) 1
y(16,2,2) 1
y(16,2,3) 0
y(16,2,4) 1
y(16,2,5) 1
y(16,3,1) 1
y(16,3,2) 1
y(16,3,3) 0
y(16,3,4) 1
y(16,3,5) 1
y(16,4,1) 1
y(16,4,2) 1
y(16,4,3) 0
y(16,4,4) 1
y(16,4,5) 1
y(16,5,1) 0
y(16,5,2) 1
y(16,5,3) 0
y(16,5,4) 0
y(16,5,5) 0
y(16,6,1) 1
y(16,6,2) 1
y(16,6,3) 0
y(16,6,4) 1
y(16,6,5) 0
y(16,7,1) 1
y(16,7,2) 1
y(16,7,3) 0
y(16,7,4) 1
y(16,7,5) 1
y(16,8,1) 1
y(16,8,2) 1
y(16,8,3) 0
y(16,8,4) 1
y(16,8,5) 1
y(16,9,1) 1
y(16,9,2) 1
y(16,9,3) 0
y(16,9,4) 1
y(16,9,5) 1
y(16,10,1) 1
y(16,10,2) 1
y(16,10,3) 0
y(16,10,4) 1
y(16,10,5) 1
y(16,11,1) 1
y(16,11,2) 1
y(16,11,3) 0
y(16,11,4) 1
y(16,11,5) 0
y(16,12,1) 1
y(16,12,2) 1
y(16,12,3) 0
y(16,12,4) 1
y(16,12,5) 1
y(16,13,1) 1
y(16,13,2) 1
y(16,13,3) 0
y(16,13,4) 1
y(16,13,5) 1
y(16,14,1) 1
y(16,14,2) 1
y(16,14,3) 0
y(16,14,4) 1
y(16,14,5) 1
y(16,15,1) 0
y(16,15,2) 1
y(16,15,3) 0
y(16,15,4) 1
y(16,15,5) 0
y(16,17,1) 0
y(16,17,2) 1
y(16,17,3) 0
y(16,17,4) 0
y(16,17,5) 0
y(16,18,1) 0
y(16,18,2) 1
y(16,18,3) 0
y(16,18,4) 1
y(16,18,5) 0
y(16,19,1) 1
y(16,19,2) 1
y(16,19,3) 0
y(16,19,4) 1
y(16,19,5) 1
y(16,20,1) 0
y(16,20,2) 1
y(16,20,3) 0
y(16,20,4) 0
y(16,20,5) 1
y(17,1,1) 1
y(17,1,2) 1
y(17,1,3) 1
y(17,1,4) 1
y(17,1,5) 1
y(17,2,1) 1
y(17,2,2) 1
y(17,2,3) 1
y(17,2,4) 1
y(17,2,5) 1
y(17,3,1) 1
y(17,3,2) 1
y(17,3,3) 1
y(17,3,4) 1
y(17,3,5) 1
y(17,4,1) 1
y(17,4,2) 1
y(17,4,3) 1
y(17,4,4) 1
y(17,4,5) 1
y(17,5,1) 1
y(17,5,2) 0
y(17,5,3) 0
y(17,5,4) 0
y(17,5,5) 0
y(17,6,1) 1
y(17,6,2) 1
y(17,6,3) 1
y(17,6,4) 1
y(17,6,5) 1
y(17,7,1) 1
y(17,7,2) 1
y(17,7,3) 1
y(17,7,4) 1
y(17,7,5) 1
y(17,8,1) 1
y(17,8,2) 1
y(17,8,3) 1
y(17,8,4) 1
y(17,8,5) 1
y(17,9,1) 1
y(17,9,2) 1
y(17,9,3) 1
y(17,9,4) 1
y(17,9,5) 1
y(17,10,1) 1
y(17,10,2) 0
y(17,10,3) 1
y(17,10,4) 1
y(17,10,5) 1
y(17,11,1) 1
y(17,11,2) 1
y(17,11,3) 1
y(17,11,4) 1
y(17,11,5) 1
y(17,12,1) 1
y(17,12,2) 1
y(17,12,3) 1
y(17,12,4) 1
y(17,12,5) 1
y(17,13,1) 1
y(17,13,2) 1
y(17,13,3) 1
y(17,13,4) 1
y(17,13,5) 1
y(17,14,1) 1
y(17,14,2) 1
y(17,14,3) 1
y(17,14,4) 1
y(17,14,5) 1
y(17,15,1) 1
y(17,15,2) 1
y(17,15,3) 1
y(17,15,4) 1
y(17,15,5) 1
y(17,16,1) 1
y(17,16,2) 0
y(17,16,3) 1
y(17,16,4) 1
y(17,16,5) 1
y(17,18,1) 1
y(17,18,2) 1
y(17,18,3) 1
y(17,18,4) 1
y(17,18,5) 1
y(17,19,1) 1
y(17,19,2) 1
y(17,19,3) 1
y(17,19,4) 1
y(17,19,5) 1
y(17,20,1) 0
y(17,20,2) 0
y(17,20,3) 0
y(17,20,4) 0
y(17,20,5) 1
y(18,1,1) 1
y(18,1,2) 1
y(18,1,3) 1
y(18,1,4) 0
y(18,1,5) 1
y(18,2,1) 1
y(18,2,2) 1
y(18,2,3) 1
y(18,2,4) 0
y(18,2,5) 1
y(18,3,1) 1
y(18,3,2) 1
y(18,3,3) 1
y(18,3,4) 1
y(18,3,5) 1
y(18,4,1) 1
y(18,4,2) 1
y(18,4,3) 1
y(18,4,4) 1
y(18,4,5) 1
y(18,5,1) 1
y(18,5,2) 0
y(18,5,3) 0
y(18,5,4) 0
y(18,5,5) 0
y(18,6,1) 1
y(18,6,2) 1
y(18,6,3) 0
y(18,6,4) 1
y(18,6,5) 1
y(18,7,1) 1
y(18,7,2) 1
y(18,7,3) 1
y(18,7,4) 0
y(18,7,5) 1
y(18,8,1) 1
y(18,8,2) 1
y(18,8,3) 0
y(18,8,4) 0
y(18,8,5) 1
y(18,9,1) 1
y(18,9,2) 1
y(18,9,3) 1
y(18,9,4) 0
y(18,9,5) 1
y(18,10,1) 1
y(18,10,2) 0
y(18,10,3) 0
y(18,10,4) 0
y(18,10,5) 1
y(18,11,1) 1
y(18,11,2) 0
y(18,11,3) 1
y(18,11,4) 0
y(18,11,5) 0
y(18,12,1) 1
y(18,12,2) 1
y(18,12,3) 0
y(18,12,4) 0
y(18,12,5) 1
y(18,13,1) 1
y(18,13,2) 1
y(18,13,3) 0
y(18,13,4) 0
y(18,13,5) 1
y(18,14,1) 1
y(18,14,2) 1
y(18,14,3) 0
y(18,14,4) 0
y(18,14,5) 1
y(18,15,1) 0
y(18,15,2) 0
y(18,15,3) 1
y(18,15,4) 0
y(18,15,5) 0
y(18,16,1) 1
y(18,16,2) 0
y(18,16,3) 1
y(18,16,4) 0
y(18,16,5) 1
y(18,17,1) 0
y(18,17,2) 0
y(18,17,3) 0
y(18,17,4) 0
y(18,17,5) 0
y(18,19,1) 1
y(18,19,2) 0
y(18,19,3) 0
y(18,19,4) 0
y(18,19,5) 1
y(18,20,1) 0
y(18,20,2) 0
y(18,20,3) 0
y(18,20,4) 0
y(18,20,5) 1
y(19,1,1) 1
y(19,1,2) 1
y(19,1,3) 1
y(19,1,4) 1
y(19,1,5) 1
y(19,2,1) 1
y(19,2,2) 1
y(19,2,3) 1
y(19,2,4) 1
y(19,2,5) 1
y(19,3,1) 1
y(19,3,2) 1
y(19,3,3) 1
y(19,3,4) 1
y(19,3,5) 1
y(19,4,1) 1
y(19,4,2) 1
y(19,4,3) 1
y(19,4,4) 1
y(19,4,5) 1
y(19,5,1) 0
y(19,5,2) 0
y(19,5,3) 0
y(19,5,4) 0
y(19,5,5) 0
y(19,6,1) 1
y(19,6,2) 1
y(19,6,3) 1
y(19,6,4) 1
y(19,6,5) 0
y(19,7,1) 1
y(19,7,2) 1
y(19,7,3) 1
y(19,7,4) 1
y(19,7,5) 1
y(19,8,1) 1
y(19,8,2) 1
y(19,8,3) 1
y(19,8,4) 1
y(19,8,5) 1
y(19,9,1) 1
y(19,9,2) 1
y(19,9,3) 1
y(19,9,4) 1
y(19,9,5) 1
y(19,10,1) 1
y(19,10,2) 0
y(19,10,3) 1
y(19,10,4) 1
y(19,10,5) 1
y(19,11,1) 1
y(19,11,2) 1
y(19,11,3) 1
y(19,11,4) 0
y(19,11,5) 0
y(19,12,1) 1
y(19,12,2) 1
y(19,12,3) 0
y(19,12,4) 1
y(19,12,5) 0
y(19,13,1) 0
y(19,13,2) 1
y(19,13,3) 1
y(19,13,4) 1
y(19,13,5) 1
y(19,14,1) 1
y(19,14,2) 1
y(19,14,3) 0
y(19,14,4) 1
y(19,14,5) 1
y(19,15,1) 0
y(19,15,2) 0
y(19,15,3) 1
y(19,15,4) 1
y(19,15,5) 0
y(19,16,1) 0
y(19,16,2) 0
y(19,16,3) 1
y(19,16,4) 0
y(19,16,5) 0
y(19,17,1) 0
y(19,17,2) 0
y(19,17,3) 0
y(19,17,4) 0
y(19,17,5) 0
y(19,18,1) 0
y(19,18,2) 1
y(19,18,3) 1
y(19,18,4) 1
y(19,18,5) 0
y(19,20,1) 0
y(19,20,2) 0
y(19,20,3) 0
y(19,20,4) 0
y(19,20,5) 1
y(20,1,1) 1
y(20,1,2) 1
y(20,1,3) 1
y(20,1,4) 1
y(20,1,5) 1
y(20,2,1) 1
y(20,2,2) 1
y(20,2,3) 1
y(20,2,4) 1
y(20,2,5) 1
y(20,3,1) 1
y(20,3,2) 1
y(20,3,3) 1
y(20,3,4) 1
y(20,3,5) 1
y(20,4,1) 1
y(20,4,2) 1
y(20,4,3) 1
y(20,4,4) 1
y(20,4,5) 1
y(20,5,1) 1
y(20,5,2) 1
y(20,5,3) 0
y(20,5,4) 1
y(20,5,5) 0
y(20,6,1) 1
y(20,6,2) 1
y(20,6,3) 1
y(20,6,4) 1
y(20,6,5) 0
y(20,7,1) 1
y(20,7,2) 1
y(20,7,3) 1
y(20,7,4) 1
y(20,7,5) 1
y(20,8,1) 1
y(20,8,2) 1
y(20,8,3) 1
y(20,8,4) 1
y(20,8,5) 1
y(20,9,1) 1
y(20,9,2) 1
y(20,9,3) 1
y(20,9,4) 1
y(20,9,5) 1
y(20,10,1) 1
y(20,10,2) 1
y(20,10,3) 1
y(20,10,4) 1
y(20,10,5) 1
y(20,11,1) 1
y(20,11,2) 1
y(20,11,3) 1
y(20,11,4) 1
y(20,11,5) 0
y(20,12,1) 1
y(20,12,2) 1
y(20,12,3) 1
y(20,12,4) 1
y(20,12,5) 0
y(20,13,1) 1
y(20,13,2) 1
y(20,13,3) 1
y(20,13,4) 1
y(20,13,5) 1
y(20,14,1) 1
y(20,14,2) 1
y(20,14,3) 1
y(20,14,4) 1
y(20,14,5) 1
y(20,15,1) 1
y(20,15,2) 1
y(20,15,3) 1
y(20,15,4) 1
y(20,15,5) 0
y(20,16,1) 1
y(20,16,2) 0
y(20,16,3) 1
y(20,16,4) 1
y(20,16,5) 0
y(20,17,1) 1
y(20,17,2) 1
y(20,17,3) 1
y(20,17,4) 1
y(20,17,5) 0
y(20,18,1) 1
y(20,18,2) 1
y(20,18,3) 1
y(20,18,4) 1
y(20,18,5) 0
y(20,19,1) 1
y(20,19,2) 1
y(20,19,3) 1
y(20,19,4) 1
y(20,19,5) 0
